2236, 0, 0, 62, 3
2237, 0, 1, 87, 1
2238, 0, 2, 97, 2
2239, 0, 3, 30, 0
2240, 1, 0, 89, 1
2241, 1, 1, 46, 0
2242, 1, 2, 37, 2
2243, 1, 3, 41, 3
2244, 2, 0, 70, 1
2245, 2, 1, 74, 0
2246, 2, 2, 66, 3
2247, 2, 3, 96, 2
2248, 3, 0, 35, 2
2249, 3, 1, 79, 1
2250, 3, 2, 84, 3
2251, 3, 3, 51, 0
